# Solution for model GasLib-40
# Objective value = 5.3305492460600178e+01
loadshed[innode_1] 0
loadshed[innode_2] 0
loadshed[innode_3] 0
loadshed[innode_4] 0
loadshed[innode_5] 0
loadshed[innode_6] 0
loadshed[innode_7] 0
loadshed[innode_8] 0
loadshed[source_1] -1.7940842521036715e-01
loadshed[source_2] 1.7392439322146469e-01
loadshed[source_3] 3.4266790698672411e-01
loadshed[sink_1] 3.9362019254811254e-01
loadshed[sink_2] 0
loadshed[sink_3] 0
loadshed[sink_4] 0
loadshed[sink_5] 0
loadshed[sink_6] 0
loadshed[sink_7] 0
loadshed[sink_8] 0
loadshed[sink_9] 0
loadshed[sink_10] 0
loadshed[sink_11] 0
loadshed[sink_12] 1
loadshed[sink_13] 0
loadshed[sink_14] 0
loadshed[sink_15] 0
loadshed[sink_16] 0
loadshed[sink_17] 0
loadshed[sink_18] 0
loadshed[sink_19] 0
loadshed[sink_20] 0
loadshed[sink_21] 1
loadshed[sink_22] 0
loadshed[sink_23] 0
loadshed[sink_24] 8.6582393243126121e-01
loadshed[sink_25] 0
loadshed[sink_26] 0
loadshed[sink_27] 0
loadshed[sink_28] 0
loadshed[sink_29] 0
flow[source_1,sink_3] 1.8645300555495839e+02
flow[innode_1,sink_16] 1.6354166666666970e+01
flow[innode_6,sink_13] 1.0561353489950065e+01
flow[sink_13,sink_14] -5.7928131767166029e+00
flow[sink_14,sink_10] -2.2146979843383633e+01
flow[sink_25,sink_26] 1.1219260497186561e+02
flow[sink_26,sink_9] 0
flow[sink_9,sink_18] -1.6354166666669244e+01
flow[sink_26,sink_4] 9.5838438305198935e+01
flow[sink_4,sink_20] -1.4438790937030193e+01
flow[sink_18,sink_6] -3.2708333333335915e+01
flow[sink_25,innode_8] -153.744672221622
flow[sink_6,sink_7] -7.5333503101038644e+01
flow[sink_6,sink_22] 2.6271003101036079e+01
flow[sink_7,sink_24] 2.1943377716970836e+00
flow[sink_22,sink_1] 9.9168364343694115e+00
flow[sink_24,sink_21] 0
flow[sink_21,sink_12] 0
flow[sink_7,sink_5] -93.8820075394024
flow[sink_5,sink_17] -1.1023617420606907e+02
flow[sink_17,sink_4] -9.3923062575562454e+01
flow[sink_17,sink_8] -3.2667278297173269e+01
flow[sink_3,sink_23] 16.3541666666697
flow[sink_8,sink_20] -4.9021444963839940e+01
flow[sink_25,sink_20] 7.9814402567536746e+01
flow[sink_25,sink_15] -6.5177855474397077e+01
flow[sink_15,sink_29] 0
flow[sink_29,sink_28] 1.6354166666667879e+01
flow[sink_29,sink_2] 9.7886188807730420e+01
flow[sink_2,sink_15] 8.1532022141063749e+01
flow[sink_29,innode_7] -1.3059452214106497e+02
flow[innode_4,sink_19] 3.9648760583970848e+01
flow[sink_19,innode_3] 7.1209479843383534e+01
flow[innode_4,innode_5] 64.269052592746
flow[sink_27,innode_5] -64.269052592746
flow[sink_27,sink_19] 4.7914885926079329e+01
flow[sink_10,sink_11] 3.2708333333333641e+01
flow[sink_10,innode_2] 0
flow[sink_10,innode_3] -7.1209479843383534e+01
flow[innode_6,sink_25] -1.0561353489950065e+01
flow[sink_11,innode_1] 1.6354166666666970e+01
flow[sink_19,innode_2] 0
flow[source_3,innode_4] 1.0391781317671683e+02
flow[source_2,innode_7] 1.3059452214106497e+02
flow[sink_3,innode_8] 153.744672221622
pressure[innode_1] 7.5306393806905973e+01
pressure[innode_2] 7.9406977683125575e+01
pressure[innode_3] 7.9249292353611239e+01
pressure[innode_4] 81.01325
pressure[innode_5] 8.0969042356709068e+01
pressure[innode_6] 7.4458430309716277e+01
pressure[innode_7] 81.01325
pressure[innode_8] 8.0390008830059614e+01
pressure[source_1] 81.01325
pressure[source_2] 81.01325
pressure[source_3] 81.01325
pressure[sink_1] 1.0132500000000002e+00
pressure[sink_2] 7.5040790502414936e+01
pressure[sink_3] 8.0390008830059614e+01
pressure[sink_4] 5.4371623941536555e+01
pressure[sink_5] 4.2570396023225264e+01
pressure[sink_6] 2.4914538162874913e+00
pressure[sink_7] 3.5256032459711948e+00
pressure[sink_8] 5.2014815469278538e+01
pressure[sink_9] 1.0263014369812535e+00
pressure[sink_10] 7.5458095114509518e+01
pressure[sink_11] 7.5306393806905973e+01
pressure[sink_12] 1.01325
pressure[sink_13] 7.4400207332892307e+01
pressure[sink_14] 7.4410574065510616e+01
pressure[sink_15] 74.7746064194926
pressure[sink_16] 74.2847439720883
pressure[sink_17] 50.7821941916241
pressure[sink_18] 1.6180439307810079e+00
pressure[sink_19] 7.9406977683125575e+01
pressure[sink_20] 55.4309207813908
pressure[sink_21] 1.01325
pressure[sink_22] 1.6582981277144788e+00
pressure[sink_23] 8.0225290818399827e+01
pressure[sink_24] 1.01325
pressure[sink_25] 7.4458430309716277e+01
pressure[sink_26] 6.6556771028610868e+01
pressure[sink_27] 80.4357279766293
pressure[sink_28] 7.7225075862562036e+01
pressure[sink_29] 7.7520358136179212e+01
interdiction[source_1,sink_3] 0
interdiction[innode_1,sink_16] 0
interdiction[innode_6,sink_13] 0
interdiction[sink_13,sink_14] 0
interdiction[sink_14,sink_10] 0
interdiction[sink_25,sink_26] 0
interdiction[sink_26,sink_9] 1
interdiction[sink_9,sink_18] 0
interdiction[sink_26,sink_4] 0
interdiction[sink_4,sink_20] 0
interdiction[sink_18,sink_6] 0
interdiction[sink_25,innode_8] 0
interdiction[sink_6,sink_7] 0
interdiction[sink_6,sink_22] 0
interdiction[sink_7,sink_24] 0
interdiction[sink_22,sink_1] 0
interdiction[sink_24,sink_21] 0
interdiction[sink_21,sink_12] 0
interdiction[sink_7,sink_5] 0
interdiction[sink_5,sink_17] 0
interdiction[sink_17,sink_4] 0
interdiction[sink_17,sink_8] 0
interdiction[sink_3,sink_23] 0
interdiction[sink_8,sink_20] 0
interdiction[sink_25,sink_20] 0
interdiction[sink_25,sink_15] 0
interdiction[sink_15,sink_29] 1
interdiction[sink_29,sink_28] 0
interdiction[sink_29,sink_2] 0
interdiction[sink_2,sink_15] 0
interdiction[sink_29,innode_7] 0
interdiction[innode_4,sink_19] 0
interdiction[sink_19,innode_3] 0
interdiction[innode_4,innode_5] 0
interdiction[sink_27,innode_5] 0
interdiction[sink_27,sink_19] 0
interdiction[sink_10,sink_11] 0
interdiction[sink_10,innode_2] 1
interdiction[sink_10,innode_3] 0
interdiction[innode_6,sink_25] 0
interdiction[sink_11,innode_1] 0
interdiction[sink_19,innode_2] 0
interdiction[source_3,innode_4] 0
interdiction[source_2,innode_7] 0
interdiction[sink_3,innode_8] 0
WCcheckFlow[source_1,sink_3] 39
WCcheckFlow[innode_1,sink_16] 1
WCcheckFlow[innode_6,sink_13] 13
WCcheckFlow[sink_13,sink_14] 12
WCcheckFlow[sink_14,sink_10] 11
WCcheckFlow[sink_25,sink_26] 15
WCcheckFlow[sink_26,sink_9] 0
WCcheckFlow[sink_9,sink_18] -1
WCcheckFlow[sink_26,sink_4] 14
WCcheckFlow[sink_4,sink_20] 1
WCcheckFlow[sink_18,sink_6] -2
WCcheckFlow[sink_25,innode_8] -36
WCcheckFlow[sink_6,sink_7] -5
WCcheckFlow[sink_6,sink_22] 2
WCcheckFlow[sink_7,sink_24] 3
WCcheckFlow[sink_22,sink_1] 1
WCcheckFlow[sink_24,sink_21] 2
WCcheckFlow[sink_21,sink_12] 1
WCcheckFlow[sink_7,sink_5] -9
WCcheckFlow[sink_5,sink_17] -10
WCcheckFlow[sink_17,sink_4] -12
WCcheckFlow[sink_17,sink_8] 1
WCcheckFlow[sink_3,sink_23] 1
WCcheckFlow[sink_8,sink_20] 0
WCcheckFlow[sink_25,sink_20] 0
WCcheckFlow[sink_25,sink_15] 6
WCcheckFlow[sink_15,sink_29] 0
WCcheckFlow[sink_29,sink_28] 1
WCcheckFlow[sink_29,sink_2] -4
WCcheckFlow[sink_2,sink_15] -5
WCcheckFlow[sink_29,innode_7] 2
WCcheckFlow[innode_4,sink_19] -4
WCcheckFlow[sink_19,innode_3] -6
WCcheckFlow[innode_4,innode_5] 2
WCcheckFlow[sink_27,innode_5] -1
WCcheckFlow[sink_27,sink_19] 0
WCcheckFlow[sink_10,sink_11] 3
WCcheckFlow[sink_10,innode_2] 0
WCcheckFlow[sink_10,innode_3] 7
WCcheckFlow[innode_6,sink_25] -14
WCcheckFlow[sink_11,innode_1] 2
WCcheckFlow[sink_19,innode_2] 1
WCcheckFlow[source_3,innode_4] -1
WCcheckFlow[source_2,innode_7] -1
WCcheckFlow[sink_3,innode_8] 37
